solution status: optimal solution found
objective value:                                    0
v998                                                1 	(obj:0)
v15                                                 1 	(obj:0)
v20                                                 1 	(obj:0)
v27                                                 1 	(obj:0)
v43                                                 1 	(obj:0)
v52                                                 1 	(obj:0)
v64                                                 1 	(obj:0)
v71                                                 1 	(obj:0)
v83                                                 1 	(obj:0)
v90                                                 1 	(obj:0)
v95                                                 1 	(obj:0)
v1017                                               1 	(obj:0)
v1024                                               1 	(obj:0)
v1059                                               1 	(obj:0)
v1062                                               1 	(obj:0)
v1089                                               1 	(obj:0)
v1104                                               1 	(obj:0)
v1132                                               1 	(obj:0)
v1143                                               1 	(obj:0)
v1170                                               1 	(obj:0)
v1173                                               1 	(obj:0)
v1193                                               1 	(obj:0)
v6                                                  1 	(obj:0)
v1220                                               1 	(obj:0)
v1242                                               1 	(obj:0)
v1256                                               1 	(obj:0)
v1262                                               1 	(obj:0)
v1293                                               1 	(obj:0)
v1303                                               1 	(obj:0)
v1331                                               1 	(obj:0)
v1351                                               1 	(obj:0)
v1376                                               1 	(obj:0)
v1389                                               1 	(obj:0)
v1402                                               1 	(obj:0)
v1419                                               1 	(obj:0)
v1441                                               1 	(obj:0)
v1454                                               1 	(obj:0)
v1468                                               1 	(obj:0)
v1496                                               1 	(obj:0)
v1511                                               1 	(obj:0)
v1518                                               1 	(obj:0)
v1545                                               1 	(obj:0)
v1556                                               1 	(obj:0)
v1579                                               1 	(obj:0)
v1597                                               1 	(obj:0)
v1618                                               1 	(obj:0)
v104                                                1 	(obj:0)
v111                                                1 	(obj:0)
v120                                                1 	(obj:0)
v130                                                1 	(obj:0)
v139                                                1 	(obj:0)
v145                                                1 	(obj:0)
v152                                                1 	(obj:0)
v164                                                1 	(obj:0)
v167                                                1 	(obj:0)
v168                                                1 	(obj:0)
v170                                                1 	(obj:0)
v174                                                1 	(obj:0)
v178                                                1 	(obj:0)
v179                                                1 	(obj:0)
v180                                                1 	(obj:0)
v181                                                1 	(obj:0)
v182                                                1 	(obj:0)
v183                                                1 	(obj:0)
v184                                                1 	(obj:0)
v190                                                1 	(obj:0)
v194                                                1 	(obj:0)
v195                                                1 	(obj:0)
v198                                                1 	(obj:0)
v200                                                1 	(obj:0)
v201                                                1 	(obj:0)
v205                                                1 	(obj:0)
v206                                                1 	(obj:0)
v209                                                1 	(obj:0)
v211                                                1 	(obj:0)
v212                                                1 	(obj:0)
v214                                                1 	(obj:0)
v221                                                1 	(obj:0)
v222                                                1 	(obj:0)
v224                                                1 	(obj:0)
v225                                                1 	(obj:0)
v226                                                1 	(obj:0)
v228                                                1 	(obj:0)
v229                                                1 	(obj:0)
v232                                                1 	(obj:0)
v235                                                1 	(obj:0)
v238                                                1 	(obj:0)
v239                                                1 	(obj:0)
v240                                                1 	(obj:0)
v245                                                1 	(obj:0)
v246                                                1 	(obj:0)
v249                                                1 	(obj:0)
v251                                                1 	(obj:0)
v253                                                1 	(obj:0)
v256                                                1 	(obj:0)
v259                                                1 	(obj:0)
v261                                                1 	(obj:0)
v266                                                1 	(obj:0)
v267                                                1 	(obj:0)
v269                                                1 	(obj:0)
v270                                                1 	(obj:0)
v272                                                1 	(obj:0)
v273                                                1 	(obj:0)
v274                                                1 	(obj:0)
v277                                                1 	(obj:0)
v280                                                1 	(obj:0)
v283                                                1 	(obj:0)
v284                                                1 	(obj:0)
v288                                                1 	(obj:0)
v291                                                1 	(obj:0)
v294                                                1 	(obj:0)
v296                                                1 	(obj:0)
v297                                                1 	(obj:0)
v298                                                1 	(obj:0)
v299                                                1 	(obj:0)
v301                                                1 	(obj:0)
v304                                                1 	(obj:0)
v307                                                1 	(obj:0)
v311                                                1 	(obj:0)
v313                                                1 	(obj:0)
v315                                                1 	(obj:0)
v317                                                1 	(obj:0)
v318                                                1 	(obj:0)
v321                                                1 	(obj:0)
v323                                                1 	(obj:0)
v331                                                1 	(obj:0)
v334                                                1 	(obj:0)
v362                                                1 	(obj:0)
v380                                                1 	(obj:0)
v401                                                1 	(obj:0)
v416                                                1 	(obj:0)
v423                                                1 	(obj:0)
v461                                                1 	(obj:0)
v496                                                1 	(obj:0)
v523                                                1 	(obj:0)
v526                                                1 	(obj:0)
v549                                                1 	(obj:0)
v561                                                1 	(obj:0)
v575                                                1 	(obj:0)
v588                                                1 	(obj:0)
v602                                                1 	(obj:0)
v614                                                1 	(obj:0)
v641                                                1 	(obj:0)
v658                                                1 	(obj:0)
v677                                                1 	(obj:0)
v695                                                1 	(obj:0)
v707                                                1 	(obj:0)
v724                                                1 	(obj:0)
v744                                                1 	(obj:0)
v761                                                1 	(obj:0)
v770                                                1 	(obj:0)
v781                                                1 	(obj:0)
v790                                                1 	(obj:0)
v808                                                1 	(obj:0)
v852                                                1 	(obj:0)
v875                                                1 	(obj:0)
v895                                                1 	(obj:0)
v916                                                1 	(obj:0)
v917                                                1 	(obj:0)
v939                                                1 	(obj:0)
v962                                                1 	(obj:0)
v975                                                1 	(obj:0)
